(set-logic QF_UF)
(declare-fun circuit () Bool)
(declare-fun grn () Bool)
(declare-fun grn_MR () Bool)
(declare-fun grn_SR () Bool)
(declare-fun org () Bool)
(declare-fun org_MR () Bool)
(declare-fun org_SR () Bool)
(declare-fun prt () Bool)
(declare-fun rd1 () Bool)
(declare-fun rd2 () Bool)
(declare-fun red_MR () Bool)
(declare-fun red_SR () Bool)
(assert (= (and prt grn) (and prt red_SR)))
(assert (= org false))
(assert (= (and (not prt) rd1) (and (not prt) red_MR)))
(assert (= rd2 false))
(assert (= (and grn (not prt)) (and red_SR (not prt))))
(assert (= (and rd1 prt) (and red_MR prt)))
(assert (not (= (or (and prt grn) org (and (not prt) rd1) rd2 (and grn (not prt)) (and rd1 prt)) (or (and prt red_SR) false (and (not prt) red_MR) false (and red_SR (not prt)) (and red_MR prt)))))
(check-sat)
(exit)
